data/solutions/recovery/wellformed/moderate/binding/wellformed_moderate_instance89/4.sol
Elapsed time: 0.02
Upper bound: 7812.0
Planning weighted value: 434870.0
C[0]=7812.0
C[1]=7578.0
C[2]=7085.0
C[3]=7082.0
C[4]=6945.0
C[5]=6861.0
y[0]=1
y[1]=0
y[2]=3
y[3]=1
y[4]=5
y[5]=3
y[6]=5
y[7]=4
y[8]=0
y[9]=1
y[10]=4
y[11]=5
y[12]=0
y[13]=2
y[14]=3
y[15]=1
y[16]=1
y[17]=4
y[18]=5
y[19]=2
y[20]=5
y[21]=1
y[22]=2
y[23]=2
y[24]=3
y[25]=3
y[26]=2
y[27]=4
y[28]=0
y[29]=5
y[30]=0
y[31]=4
y[32]=2
y[33]=4
y[34]=0
y[35]=4
y[36]=2
y[37]=2
y[38]=3
y[39]=4
y[40]=1
y[41]=0
