data/solutions/recovery/wellformed/moderate/binding/wellformed_moderate_instance89/4.log

Log started (V12.6.3.0) Fri Apr 20 17:47:00 2018

New value for default parallel thread count: 1

Problem '/tmp/tmpqLD7Pa.pyomo.lp' read.
Read time = 0.00 sec. (0.13 ticks)

Problem name         : /tmp/tmpqLD7Pa.pyomo.lp
Objective sense      : Minimize
Variables            :     260  [Nneg: 1,  Binary: 252,  General Integer: 7]
Objective nonzeros   :       1
Linear constraints   :      97  [Less: 48,  Equal: 49]
  Nonzeros           :    8917
  RHS nonzeros       :      43

Variables            : Min LB: 0.000000         Max UB: 1.000000       
Objective nonzeros   : Min   : 1.000000         Max   : 1.000000       
Linear constraints   :
  Nonzeros           : Min   : 1.000000         Max   : 1980.000       
  RHS nonzeros       : Min   : 1.000000         Max   : 1.000000       
Tried aggregator 2 times.
MIP Presolve eliminated 83 rows and 241 columns.
Aggregator did 6 substitutions.
Reduced MIP has 8 rows, 13 columns, and 30 nonzeros.
Reduced MIP has 12 binaries, 1 generals, 0 SOSs, and 0 indicators.
Presolve time = 0.00 sec. (0.62 ticks)
Found incumbent of value 10135.000000 after 0.00 sec. (0.84 ticks)
Probing time = 0.00 sec. (0.01 ticks)
Cover probing fixed 0 vars, tightened 1 bounds.
Tried aggregator 1 time.
MIP Presolve modified 2 coefficients.
Reduced MIP has 8 rows, 13 columns, and 30 nonzeros.
Reduced MIP has 12 binaries, 1 generals, 0 SOSs, and 0 indicators.
Presolve time = 0.00 sec. (0.02 ticks)
Probing time = 0.00 sec. (0.01 ticks)
Clique table members: 2.
MIP emphasis: balance optimality and feasibility.
MIP search method: dynamic search.
Parallel mode: none, using 1 thread.
Root relaxation solution time = 0.00 sec. (0.01 ticks)

        Nodes                                         Cuts/
   Node  Left     Objective  IInf  Best Integer    Best Bound    ItCnt     Gap

*     0+    0                        10135.0000     7578.0000            25.23%
      0     0     7578.0000     5    10135.0000     7578.0000        4   25.23%
*     0+    0                         8519.0000     7578.0000            11.05%
      0     0     7709.5431     6     8519.0000      Cuts: 10       10    9.50%
*     0+    0                         7812.0000     7709.5431             1.31%
      0     0        cutoff           7812.0000                     11    0.00%
Elapsed time = 0.00 sec. (1.03 ticks, tree = 0.01 MB, solutions = 3)

Implied bound cuts applied:  1
Mixed integer rounding cuts applied:  3

Root node processing (before b&c):
  Real time             =    0.00 sec. (1.04 ticks)
Sequential b&c:
  Real time             =    0.00 sec. (0.00 ticks)
                          ------------
Total (root+branch&cut) =    0.00 sec. (1.04 ticks)

Solution pool: 3 solutions saved.

MIP - Integer optimal solution:  Objective =  7.8120000000e+03
Solution time =    0.00 sec.  Iterations = 11  Nodes = 0
Deterministic time = 1.04 ticks  (240.31 ticks/sec)


Incumbent solution written to file '/tmp/tmpPc1kjt.cplex.sol'.

Log started (V12.6.3.0) Fri Apr 20 17:49:27 2018

New value for default parallel thread count: 1

Problem '/tmp/tmpnYGZ_r.pyomo.lp' read.
Read time = 0.00 sec. (0.13 ticks)

Problem name         : /tmp/tmpnYGZ_r.pyomo.lp
Objective sense      : Minimize
Variables            :     260  [Nneg: 1,  Binary: 252,  General Integer: 7]
Objective nonzeros   :       1
Linear constraints   :      97  [Less: 48,  Equal: 49]
  Nonzeros           :    8917
  RHS nonzeros       :      43

Variables            : Min LB: 0.000000         Max UB: 1.000000       
Objective nonzeros   : Min   : 1.000000         Max   : 1.000000       
Linear constraints   :
  Nonzeros           : Min   : 1.000000         Max   : 1980.000       
  RHS nonzeros       : Min   : 1.000000         Max   : 1.000000       
Tried aggregator 2 times.
MIP Presolve eliminated 83 rows and 241 columns.
Aggregator did 6 substitutions.
Reduced MIP has 8 rows, 13 columns, and 30 nonzeros.
Reduced MIP has 12 binaries, 1 generals, 0 SOSs, and 0 indicators.
Presolve time = 0.00 sec. (0.62 ticks)
Found incumbent of value 10135.000000 after 0.00 sec. (0.84 ticks)
Probing time = 0.00 sec. (0.01 ticks)
Cover probing fixed 0 vars, tightened 1 bounds.
Tried aggregator 1 time.
MIP Presolve modified 2 coefficients.
Reduced MIP has 8 rows, 13 columns, and 30 nonzeros.
Reduced MIP has 12 binaries, 1 generals, 0 SOSs, and 0 indicators.
Presolve time = 0.00 sec. (0.02 ticks)
Probing time = 0.00 sec. (0.01 ticks)
Clique table members: 2.
MIP emphasis: balance optimality and feasibility.
MIP search method: dynamic search.
Parallel mode: none, using 1 thread.
Root relaxation solution time = 0.00 sec. (0.01 ticks)

        Nodes                                         Cuts/
   Node  Left     Objective  IInf  Best Integer    Best Bound    ItCnt     Gap

*     0+    0                        10135.0000     7578.0000            25.23%
      0     0     7578.0000     5    10135.0000     7578.0000        4   25.23%
*     0+    0                         8519.0000     7578.0000            11.05%
      0     0     7709.5431     6     8519.0000      Cuts: 10       10    9.50%
*     0+    0                         7812.0000     7709.5431             1.31%
      0     0        cutoff           7812.0000                     11    0.00%
Elapsed time = 0.00 sec. (1.03 ticks, tree = 0.01 MB, solutions = 3)

Implied bound cuts applied:  1
Mixed integer rounding cuts applied:  3

Root node processing (before b&c):
  Real time             =    0.00 sec. (1.04 ticks)
Sequential b&c:
  Real time             =    0.00 sec. (0.00 ticks)
                          ------------
Total (root+branch&cut) =    0.00 sec. (1.04 ticks)

Solution pool: 3 solutions saved.

MIP - Integer optimal solution:  Objective =  7.8120000000e+03
Solution time =    0.00 sec.  Iterations = 11  Nodes = 0
Deterministic time = 1.04 ticks  (292.26 ticks/sec)


Incumbent solution written to file '/tmp/tmpUyRSMn.cplex.sol'.

Log started (V12.6.3.0) Fri Apr 20 17:52:29 2018

New value for default parallel thread count: 1

Problem '/tmp/tmpHV3o1v.pyomo.lp' read.
Read time = 0.00 sec. (0.13 ticks)

Problem name         : /tmp/tmpHV3o1v.pyomo.lp
Objective sense      : Minimize
Variables            :     260  [Nneg: 1,  Binary: 252,  General Integer: 7]
Objective nonzeros   :       1
Linear constraints   :      97  [Less: 48,  Equal: 49]
  Nonzeros           :    8917
  RHS nonzeros       :      43

Variables            : Min LB: 0.000000         Max UB: 1.000000       
Objective nonzeros   : Min   : 1.000000         Max   : 1.000000       
Linear constraints   :
  Nonzeros           : Min   : 1.000000         Max   : 1980.000       
  RHS nonzeros       : Min   : 1.000000         Max   : 1.000000       
Tried aggregator 2 times.
MIP Presolve eliminated 83 rows and 241 columns.
Aggregator did 6 substitutions.
Reduced MIP has 8 rows, 13 columns, and 30 nonzeros.
Reduced MIP has 12 binaries, 1 generals, 0 SOSs, and 0 indicators.
Presolve time = 0.00 sec. (0.62 ticks)
Found incumbent of value 10135.000000 after 0.00 sec. (0.84 ticks)
Probing time = 0.00 sec. (0.01 ticks)
Cover probing fixed 0 vars, tightened 1 bounds.
Tried aggregator 1 time.
MIP Presolve modified 2 coefficients.
Reduced MIP has 8 rows, 13 columns, and 30 nonzeros.
Reduced MIP has 12 binaries, 1 generals, 0 SOSs, and 0 indicators.
Presolve time = 0.00 sec. (0.02 ticks)
Probing time = 0.00 sec. (0.01 ticks)
Clique table members: 2.
MIP emphasis: balance optimality and feasibility.
MIP search method: dynamic search.
Parallel mode: none, using 1 thread.
Root relaxation solution time = 0.00 sec. (0.01 ticks)

        Nodes                                         Cuts/
   Node  Left     Objective  IInf  Best Integer    Best Bound    ItCnt     Gap

*     0+    0                        10135.0000     7578.0000            25.23%
      0     0     7578.0000     5    10135.0000     7578.0000        4   25.23%
*     0+    0                         8519.0000     7578.0000            11.05%
      0     0     7709.5431     6     8519.0000      Cuts: 10       10    9.50%
*     0+    0                         7812.0000     7709.5431             1.31%
      0     0        cutoff           7812.0000                     11    0.00%
Elapsed time = 0.00 sec. (1.03 ticks, tree = 0.01 MB, solutions = 3)

Implied bound cuts applied:  1
Mixed integer rounding cuts applied:  3

Root node processing (before b&c):
  Real time             =    0.00 sec. (1.04 ticks)
Sequential b&c:
  Real time             =    0.00 sec. (0.00 ticks)
                          ------------
Total (root+branch&cut) =    0.00 sec. (1.04 ticks)

Solution pool: 3 solutions saved.

MIP - Integer optimal solution:  Objective =  7.8120000000e+03
Solution time =    0.00 sec.  Iterations = 11  Nodes = 0
Deterministic time = 1.04 ticks  (339.74 ticks/sec)


Incumbent solution written to file '/tmp/tmpu6TUQs.cplex.sol'.
